
Gurobi 7.0.2 (linux64) logging started Thu Jun  8 14:33:59 2017

Changed value of parameter logfile to result/NEIS-20170608T1411/scenario_base.log
   Prev: gurobi.log  Default: 
Optimize a model with 1059933 rows, 937229 columns and 3961670 nonzeros
Coefficient statistics:
  Matrix range     [8e-04, 1e+05]
  Objective range  [1e+00, 1e+00]
  Bounds range     [0e+00, 0e+00]
  RHS range        [1e-04, 1e+05]

Concurrent LP optimizer: primal simplex, dual simplex, and barrier
Showing barrier log only...

Presolve removed 580114 rows and 635954 columns
Presolve time: 3.03s
Presolved: 479819 rows, 301275 columns, 1383529 nonzeros

Ordering time: 0.42s

Barrier statistics:
 Dense cols : 22
 AA' NZ     : 1.918e+06
 Factor NZ  : 6.933e+06 (roughly 400 MBytes of memory)
 Factor Ops : 1.616e+08 (less than 1 second per iteration)
 Threads    : 22

                  Objective                Residual
Iter       Primal          Dual         Primal    Dual     Compl     Time
   0   3.74649451e+11 -2.71577061e+11  8.80e+02 6.66e+03  2.06e+07     5s
   1   2.95698891e+11 -9.43007449e+10  6.48e+02 1.38e+04  6.76e+06     5s
   2   2.88731972e+11 -6.51976768e+10  6.38e+02 6.80e+03  5.94e+06     6s
   3   1.93386095e+11 -9.00810563e+10  4.18e+02 2.56e+02  3.97e+06     6s
   4   5.15200908e+09 -7.80674683e+10  5.91e+00 9.03e+00  1.60e+05     7s
   5   7.73185047e+08 -9.67621038e+09  5.71e-01 1.90e-05  1.62e+04     7s
   6   2.95602085e+08 -3.00971572e+09  1.19e-01 5.67e-06  4.61e+03     8s
   7   1.45370128e+08 -1.23582909e+09  2.12e-02 2.26e-06  1.87e+03     8s
   8   1.11453404e+08 -3.24529826e+08  1.16e-02 6.04e-07  5.87e+02     9s
   9   1.15286579e+08 -1.77872491e+08  1.11e-02 3.65e-07  3.95e+02    10s
  10   6.60340305e+07 -1.21835865e+08  4.39e-03 2.59e-07  2.52e+02    10s
  11   5.91116626e+07 -5.80569856e+07  2.16e-03 1.52e-07  1.57e+02    11s
  12   3.47668273e+07 -1.64801474e+07  6.51e-04 7.55e-08  6.87e+01    11s
  13   2.53821979e+07 -9.95143046e+06  3.83e-04 5.74e-08  4.74e+01    11s
  14   2.01068118e+07 -4.42944714e+05  2.28e-04 3.13e-08  2.76e+01    12s
  15   1.69737645e+07  4.00580329e+06  1.41e-04 1.95e-08  1.74e+01    12s
  16   1.54251958e+07  7.72425285e+06  1.01e-04 9.69e-09  1.03e+01    13s
  17   1.47190220e+07  9.68848156e+06  8.53e-05 3.65e-09  6.74e+00    14s
  18   1.38155497e+07  1.05245780e+07  6.32e-05 1.46e-09  4.41e+00    14s
  19   1.33959860e+07  1.06989673e+07  5.24e-05 8.51e-10  3.62e+00    15s
  20   1.31519849e+07  1.08567370e+07  4.61e-05 1.24e-09  3.08e+00    15s
  21   1.23864706e+07  1.09824514e+07  2.66e-05 4.80e-10  1.88e+00    16s
  22   1.20383145e+07  1.11123523e+07  1.81e-05 4.80e-10  1.24e+00    16s
  23   1.19721809e+07  1.11277893e+07  1.65e-05 3.20e-10  1.13e+00    17s
  24   1.18950322e+07  1.11459242e+07  1.47e-05 1.85e-10  1.00e+00    17s
  25   1.17718304e+07  1.11638617e+07  1.17e-05 1.92e-10  8.15e-01    18s
  26   1.17347313e+07  1.11929594e+07  1.08e-05 5.24e-10  7.26e-01    18s
  27   1.16726821e+07  1.12039557e+07  9.21e-06 4.15e-10  6.28e-01    19s
  28   1.16370528e+07  1.12182610e+07  8.30e-06 8.37e-10  5.61e-01    19s
  29   1.15977703e+07  1.12302529e+07  7.31e-06 4.37e-10  4.93e-01    20s
  30   1.15648029e+07  1.12434634e+07  6.54e-06 3.27e-10  4.31e-01    20s
  31   1.15436693e+07  1.12470766e+07  6.01e-06 6.33e-10  3.98e-01    21s
  32   1.14868721e+07  1.12539245e+07  4.72e-06 1.05e-09  3.12e-01    21s
  33   1.14418005e+07  1.12639977e+07  3.57e-06 1.16e-09  2.38e-01    22s
  34   1.14176533e+07  1.12685537e+07  2.96e-06 9.17e-10  2.00e-01    23s
  35   1.14030214e+07  1.12732935e+07  2.60e-06 1.94e-09  1.74e-01    23s
  36   1.13807226e+07  1.12769154e+07  2.02e-06 1.84e-09  1.39e-01    24s
  37   1.13694539e+07  1.12794510e+07  1.73e-06 1.79e-09  1.21e-01    24s
  38   1.13604893e+07  1.12838461e+07  1.50e-06 1.67e-09  1.03e-01    25s
  39   1.13558416e+07  1.12847403e+07  1.39e-06 2.20e-09  9.53e-02    25s
  40   1.13509853e+07  1.12884339e+07  1.27e-06 1.26e-09  8.39e-02    26s
  41   1.13438100e+07  1.12902195e+07  1.10e-06 1.08e-09  7.18e-02    26s
  42   1.13373638e+07  1.12912245e+07  9.40e-07 1.36e-09  6.18e-02    27s
  43   1.13351845e+07  1.12917037e+07  8.87e-07 8.95e-10  5.83e-02    27s
  44   1.13314819e+07  1.12924029e+07  7.93e-07 5.24e-10  5.24e-02    28s
  45   1.13304552e+07  1.12934329e+07  7.68e-07 3.49e-10  4.96e-02    28s
  46   1.13238157e+07  1.12937842e+07  6.17e-07 4.22e-10  4.03e-02    29s
  47   1.13205628e+07  1.12945479e+07  5.35e-07 6.55e-10  3.49e-02    29s
  48   1.13173626e+07  1.12955410e+07  4.55e-07 2.90e-09  2.93e-02    30s
  49   1.13144205e+07  1.12960154e+07  3.87e-07 1.54e-09  2.47e-02    31s
  50   1.13118817e+07  1.12964360e+07  3.23e-07 1.36e-09  2.07e-02    31s
  51   1.13108521e+07  1.12965593e+07  2.97e-07 2.34e-09  1.92e-02    32s
  52   1.13092719e+07  1.12968496e+07  2.57e-07 5.61e-09  1.67e-02    32s
  53   1.13090274e+07  1.12970379e+07  2.51e-07 6.82e-09  1.61e-02    33s
  54   1.13085776e+07  1.12971877e+07  2.40e-07 7.93e-09  1.53e-02    33s
  55   1.13076059e+07  1.12974137e+07  2.16e-07 9.69e-09  1.37e-02    34s
  56   1.13067701e+07  1.12976029e+07  1.96e-07 1.05e-08  1.23e-02    34s
  57   1.13057614e+07  1.12978721e+07  1.73e-07 8.92e-09  1.06e-02    35s
  58   1.13046116e+07  1.12979442e+07  1.45e-07 7.97e-09  8.94e-03    36s
  59   1.13041390e+07  1.12979661e+07  1.33e-07 7.70e-09  8.27e-03    36s
  60   1.13038274e+07  1.12979995e+07  1.26e-07 6.92e-09  7.81e-03    37s
  61   1.13036406e+07  1.12980367e+07  1.21e-07 6.50e-09  7.51e-03    37s
  62   1.13032617e+07  1.12980950e+07  1.12e-07 5.42e-09  6.93e-03    38s
  63   1.13029326e+07  1.12981259e+07  1.03e-07 4.79e-09  6.44e-03    38s
  64   1.13024744e+07  1.12981491e+07  9.23e-08 4.50e-09  5.80e-03    39s
  65   1.13019637e+07  1.12982592e+07  8.14e-08 4.64e-09  4.97e-03    39s
  66   1.13014900e+07  1.12983351e+07  6.91e-08 1.33e-09  4.23e-03    40s
  67   1.13012601e+07  1.12983505e+07  6.34e-08 2.62e-09  3.90e-03    41s
  68   1.13011737e+07  1.12983920e+07  6.11e-08 7.36e-09  3.73e-03    41s
  69   1.13010481e+07  1.12984328e+07  5.80e-08 5.09e-09  3.51e-03    41s
  70   1.13008809e+07  1.12984409e+07  5.42e-08 6.13e-09  3.27e-03    42s
  71   1.13006635e+07  1.12985083e+07  4.86e-08 1.69e-09  2.89e-03    43s
  72   1.13003916e+07  1.12985205e+07  4.18e-08 2.97e-09  2.51e-03    43s
  73   1.12999424e+07  1.12985433e+07  3.11e-08 6.02e-09  1.88e-03    44s
  74   1.12997427e+07  1.12985594e+07  2.62e-08 3.39e-09  1.59e-03    44s
  75   1.12996645e+07  1.12985856e+07  2.41e-08 1.51e-09  1.45e-03    45s
  76   1.12994953e+07  1.12986040e+07  1.96e-08 1.98e-09  1.19e-03    45s
  77   1.12994343e+07  1.12986118e+07  1.81e-08 6.18e-10  1.10e-03    46s
  78   1.12993898e+07  1.12986238e+07  1.69e-08 9.02e-10  1.03e-03    46s
  79   1.12993528e+07  1.12986347e+07  1.60e-08 7.57e-10  9.63e-04    47s
  80   1.12993147e+07  1.12986446e+07  1.50e-08 6.31e-09  8.98e-04    47s
  81   1.12992898e+07  1.12986494e+07  1.44e-08 7.14e-09  8.59e-04    48s
  82   1.12991760e+07  1.12986552e+07  1.16e-08 1.13e-08  6.98e-04    48s
  83   1.12990772e+07  1.12986665e+07  9.28e-09 7.90e-09  5.51e-04    49s
  84   1.12990733e+07  1.12986702e+07  9.17e-09 3.43e-09  5.40e-04    50s
  85   1.12990622e+07  1.12986712e+07  8.88e-09 1.06e-09  5.24e-04    50s
  86   1.12989987e+07  1.12986742e+07  7.09e-09 3.50e-09  4.35e-04    51s
  87   1.12989321e+07  1.12986775e+07  5.33e-09 1.25e-08  3.41e-04    51s
  88   1.12989060e+07  1.12986849e+07  4.63e-09 1.01e-08  2.96e-04    52s
  89   1.12988848e+07  1.12986889e+07  4.10e-09 8.95e-09  2.63e-04    53s
  90   1.12988764e+07  1.12986907e+07  3.88e-09 8.72e-09  2.49e-04    54s
  91   1.12988559e+07  1.12987001e+07  4.88e-09 5.46e-09  2.09e-04    55s
  92   1.12988308e+07  1.12987029e+07  2.04e-08 2.01e-08  1.71e-04    55s
  93   1.12987958e+07  1.12987077e+07  3.30e-07 4.37e-10  1.18e-04    56s
  94   1.12987709e+07  1.12987155e+07  2.12e-07 2.27e-07  7.42e-05    57s
  95   1.12987570e+07  1.12987160e+07  2.52e-07 1.08e-07  5.50e-05    57s
  96   1.12987371e+07  1.12987195e+07  1.22e-06 5.56e-07  2.36e-05    58s
  97   1.12987347e+07  1.12987197e+07  1.02e-06 5.05e-07  2.01e-05    59s
  98   1.12987343e+07  1.12987204e+07  9.91e-07 3.53e-07  1.86e-05    60s
  99   1.12987291e+07  1.12987215e+07  5.58e-07 9.12e-08  1.01e-05    60s
 100   1.12987291e+07  1.12987215e+07  1.62e-06 9.25e-08  1.01e-05    61s
 101   1.12987291e+07  1.12987215e+07  6.28e-06 9.21e-08  1.01e-05    62s
 102   1.12987291e+07  1.12987215e+07  6.28e-06 5.53e-10  1.01e-05    63s
 103   1.12987291e+07  1.12987215e+07  6.28e-06 1.31e-10  1.01e-05    63s
 104   1.12987291e+07  1.12987215e+07  6.46e-06 5.53e-10  1.01e-05    64s
 105   1.12987291e+07  1.12987215e+07  6.46e-06 5.38e-10  1.01e-05    65s
 106   1.12987291e+07  1.12987215e+07  6.46e-06 2.04e-10  1.01e-05    66s
 107   1.12987291e+07  1.12987215e+07  7.22e-06 8.15e-10  1.00e-05    67s
 108   1.12987291e+07  1.12987215e+07  7.22e-06 6.84e-10  1.00e-05    68s
 109   1.12987290e+07  1.12987215e+07  7.18e-06 7.57e-10  1.00e-05    69s

Barrier performed 109 iterations in 68.93 seconds
Sub-optimal termination - objective 1.12987291e+07

Crossover log...

  223442 DPushes remaining with DInf 0.0000000e+00                69s
  120421 DPushes remaining with DInf 0.0000000e+00                70s
   91128 DPushes remaining with DInf 0.0000000e+00                75s
   88962 DPushes remaining with DInf 0.0000000e+00                81s
   87879 DPushes remaining with DInf 0.0000000e+00                87s
   87157 DPushes remaining with DInf 0.0000000e+00                90s
   86074 DPushes remaining with DInf 0.0000000e+00                95s
   82321 DPushes remaining with DInf 0.0000000e+00               100s
   80150 DPushes remaining with DInf 0.0000000e+00               106s
   79067 DPushes remaining with DInf 0.0000000e+00               111s
   77984 DPushes remaining with DInf 0.0000000e+00               116s
   76901 DPushes remaining with DInf 0.0000000e+00               121s
   75818 DPushes remaining with DInf 0.0000000e+00               126s
   74735 DPushes remaining with DInf 0.0000000e+00               131s
   73652 DPushes remaining with DInf 0.0000000e+00               137s
   72568 DPushes remaining with DInf 0.0000000e+00               141s
   71483 DPushes remaining with DInf 0.0000000e+00               146s
   70398 DPushes remaining with DInf 0.0000000e+00               151s
   69314 DPushes remaining with DInf 0.0000000e+00               156s
   64374 DPushes remaining with DInf 0.0000000e+00               160s
   45783 DPushes remaining with DInf 0.0000000e+00               165s
   42418 DPushes remaining with DInf 0.0000000e+00               170s
   38064 DPushes remaining with DInf 0.0000000e+00               175s
   33721 DPushes remaining with DInf 0.0000000e+00               180s
   28649 DPushes remaining with DInf 0.0000000e+00               185s
   21356 DPushes remaining with DInf 0.0000000e+00               190s
       0 DPushes remaining with DInf 1.8654189e-09               194s

  129870 PPushes remaining with PInf 9.8371278e-03               194s
   14547 PPushes remaining with PInf 5.8125727e-02               195s
       0 PPushes remaining with PInf 2.0137439e-04               196s

  Push phase complete: Pinf 2.0137439e-04, Dinf 6.5136686e+02    197s

Iteration    Objective       Primal Inf.    Dual Inf.      Time
  329954    1.1298722e+07   0.000000e+00   6.513669e+02    197s
  330285    1.1298722e+07   0.000000e+00   0.000000e+00    198s

Solved with barrier
Solved in 330285 iterations and 198.34 seconds
Optimal objective  1.129872200e+07
